 $CONTRL  
     SCFTYP=RHF 
     MULT=1 
     ICHARG=0 
     RUNTYP=energy 
     MAXIT=200 
     PP=READ
     UNITS=ANGS 
 $END

 $SYSTEM 
    MWORDS=1000  
    MEMDDI=1000 
 $END

 $GUESS 
     GUESS=MOREAD
     NORB=211
     NORDER=1
     IORDER(1)=2
     IORDER(2)=1
     IORDER(3)=162
     IORDER(4)=210
     IORDER(5)=211
     IORDER(6)=82
     IORDER(82)=6
     IORDER(211)=5
     IORDER(210)=4
     IORDER(162)=3
 $END

 $SCF DAMP=.T. SOSCF=.F. SHIFT=.T. RSTRCT=.T. DIIS=.T.  $END


! $MCSCF
!      CISTEP=GUGA
! $END

! $CIDRT 
!      NPRT=2
!      NFZC=0
!      NDOC=4
! !     NAOS=1
! !     NBOS=1
!      NVAL=30 
!      IEXCIT=1
!      GROUP=C1
! $END
!
! $GUGDIA NSTATE=2 $END
!
! $GUGDM NFLGDM(1)=1,1 IROOT=2 $END
!
! $GUGDIA PRTTOL=0.0001 $END

! $CIS    
!      HAMTYP=SAPS MULT=1 NACORE=0 NSTATE=1 IROOT=1
! $END

 $DATA
BeH2 calculation
C1
Be 4 0.0000  0.0000  0.0000
S  9
  1      15.965877  0.00069000
  2       7.367361  -0.00037700
  3       3.399626  0.02406900
  4       1.568738  -0.11198900
  5       0.723885  -0.07644200
  6       0.334032  0.13574400
  7       0.154137  0.41851500
  8       0.071126  0.46292400
  9       0.032821  0.12826600
P  9
  1      16.554942  0.00034100
  2       7.526050  0.00322800
  3       3.421421  0.01766000
  4       1.555414  0.03866400
  5       0.707108  0.09863900
  6       0.321458  0.23125900
  7       0.146138  0.38710900
  8       0.066436  0.33944800
  9       0.030203  0.08910200
S  1
  1       1.332887  1.00000000
S  1
  1       0.245509  1.00000000
S  1
  1       0.045221  1.00000000
S  1
  1       0.018088  1.00000000
P  1
  1       2.453623  1.00000000
P  1
  1       0.683999  1.00000000
P  1
  1       0.190679  1.00000000
P  1
  1       0.076272  1.00000000
D  1
  1       0.984098  1.00000000
D  1
  1       0.408510  1.00000000
D  1
  1       0.169577  1.00000000
D  1
  1       0.067831  1.00000000
F  1
  1       0.477034  1.00000000
F  1
  1       0.237971  1.00000000
F  1
  1       0.095188  1.00000000
G  1
  1       0.422045  1.00000000
G  1
  1       0.168818  1.00000000

H 1  0.0000 0.0000 1.3264
S  8
  1      23.843185  0.00411490
  2      10.212443  0.01046440
  3       4.374164  0.02801110
  4       1.873529  0.07588620
  5       0.802465  0.18210620
  6       0.343709  0.34852140
  7       0.147217  0.37823130
  8       0.063055  0.11642410
S  1
  1       0.028726  1.00000000
S  1
  1       0.081856  1.00000000
S  1
  1       0.233254  1.00000000
S  1
  1       0.664673  1.00000000
P  1
  1       0.095522  1.00000000
P  1
  1       0.284469  1.00000000
P  1
  1       0.847159  1.00000000
P  1
  1       2.522868  1.00000000
D  1
  1       0.216033  1.00000000
D  1
  1       0.665279  1.00000000
D  1
  1       2.048739  1.00000000
F  1
  1       0.444647  1.00000000
F  1
  1       1.421460  1.00000000

H 1 0.0000 0.0000 -1.3264
S  8
  1      23.843185  0.00411490
  2      10.212443  0.01046440
  3       4.374164  0.02801110
  4       1.873529  0.07588620
  5       0.802465  0.18210620
  6       0.343709  0.34852140
  7       0.147217  0.37823130
  8       0.063055  0.11642410
S  1
  1       0.028726  1.00000000
S  1
  1       0.081856  1.00000000
S  1
  1       0.233254  1.00000000
S  1
  1       0.664673  1.00000000
P  1
  1       0.095522  1.00000000
P  1
  1       0.284469  1.00000000
P  1
  1       0.847159  1.00000000
P  1
  1       2.522868  1.00000000
D  1
  1       0.216033  1.00000000
D  1
  1       0.665279  1.00000000
D  1
  1       2.048739  1.00000000
F  1
  1       0.444647  1.00000000
F  1
  1       1.421460  1.00000000
 
 $END

 $ECP
Be-ccECP GEN 2 1
4
2                   1 17.94900205362972 
35.89800410725944   3 24.13200289331664 
-12.77499846818315  2 20.13800265282147 
-2.96001382478467   2 4.333170937885760 
1
12.66391859014478   2 2.487403700772570 
H-ccECP GEN 0 1
3
1.00000000000000    1 21.24359508259891 
21.24359508259891   3 21.24359508259891 
-10.85192405303825  2 21.77696655044365 
1
0.00000000000000    2 1.000000000000000 
H-ccECP

 $END
 $VEC   
 1  1 8.21356928E-01 0.00000000E+00 0.00000000E+00 6.78770549E-11 1.33078059E-02
 1  2-1.29703327E-01-2.28653634E-01-1.00119027E-02 0.00000000E+00 0.00000000E+00
 1  3 0.00000000E+00 0.00000000E+00-1.97253114E-11 9.01340837E-11 2.63305036E-11
 1  4 8.71895571E-11-1.24588669E-10 0.00000000E+00 2.39010439E-11-3.96521193E-10
 1  5-2.14981791E-03-2.14981791E-03 1.50645555E-02 0.00000000E+00 0.00000000E+00
 1  6 0.00000000E+00 3.22938390E-03 3.22938390E-03 1.48627659E-02 0.00000000E+00
 1  7-2.14695634E-11 0.00000000E+00-2.73354473E-02-2.73354473E-02-1.42074672E-02
 1  8 0.00000000E+00-2.34296405E-10-1.35532537E-11 9.22705439E-03 9.22705439E-03
 1  9 5.60350671E-02 0.00000000E+00-9.37164747E-11 0.00000000E+00 0.00000000E+00
 1 10-2.00706123E-11 1.08019707E-10 0.00000000E+00 4.82447078E-11 0.00000000E+00
 1 11 4.82454469E-11 0.00000000E+00 0.00000000E+00 0.00000000E+00-1.12505551E-11
 1 12-3.91702488E-11 3.24266924E-10-1.75087782E-11 5.95161078E-11 0.00000000E+00
 1 13 5.95143346E-11 0.00000000E+00-1.66131616E-11 0.00000000E+00 0.00000000E+00
 1 14-1.03487430E-11 1.04554953E-10 0.00000000E+00 4.82126116E-11 0.00000000E+00
 1 15 4.82128776E-11 0.00000000E+00 0.00000000E+00 0.00000000E+00-6.34948503E-03
 1 16-6.34948503E-03 8.27654865E-03 0.00000000E+00 3.09342050E-11 0.00000000E+00
 1 17 0.00000000E+00 0.00000000E+00 0.00000000E+00-3.71788506E-03 1.12178645E-03
 1 18 1.12178645E-03 0.00000000E+00 1.38574626E-11 0.00000000E+00-1.43278135E-03
 1 19-1.43278135E-03-1.66446807E-02 0.00000000E+00 6.23608595E-11 0.00000000E+00
 1 20 0.00000000E+00 1.28648868E-11 0.00000000E+00-8.38903488E-04-2.52307470E-03
 1 21-2.52307470E-03 0.00000000E+00 2.78351205E-11 0.00000000E+00 5.35998001E-01
 1 22-1.03624759E-03-1.23581438E-01-5.39490487E-02-1.92775228E-02 1.07844959E-10
 1 23 0.00000000E+00 4.92987482E-03 3.45727515E-11 1.22305619E-11-4.06364621E-02
 1 24 0.00000000E+00 0.00000000E+00-9.45740387E-04 0.00000000E+00 0.00000000E+00
 1 25-1.76877750E-03 1.06734038E-02 1.06734038E-02 9.68628313E-03 0.00000000E+00
 1 26-4.30885850E-11 0.00000000E+00 3.08871249E-03 3.08871249E-03 7.99696961E-03
 1 27 0.00000000E+00 0.00000000E+00 0.00000000E+00 5.30125264E-04 5.30125264E-04
 1 28 1.13527571E-03 0.00000000E+00 0.00000000E+00 0.00000000E+00 2.42477179E-11
 1 29 0.00000000E+00 1.14254577E-02 0.00000000E+00 6.02096356E-03 1.08075292E-11
 1 30 6.02096356E-03 1.73095199E-11 0.00000000E+00 0.00000000E+00 0.00000000E+00
 1 31 0.00000000E+00-3.60640476E-04 0.00000000E+00 7.75230619E-05 0.00000000E+00
 1 32 7.75230619E-05 0.00000000E+00 0.00000000E+00 0.00000000E+00 5.35998001E-01
 1 33-1.03624758E-03-1.23581438E-01-5.39490482E-02-1.92775228E-02-1.02239777E-10
 1 34 0.00000000E+00-4.92987489E-03-2.17947366E-11-2.36300494E-11 4.06364623E-02
 1 35 0.00000000E+00 1.10513946E-11 9.45740386E-04 0.00000000E+00 0.00000000E+00
 1 36 1.76877750E-03 1.06734038E-02 1.06734038E-02 9.68628310E-03 0.00000000E+00
 1 37-4.09856115E-11 0.00000000E+00 3.08871249E-03 3.08871249E-03 7.99696961E-03
 1 38 0.00000000E+00 0.00000000E+00 0.00000000E+00 5.30125264E-04 5.30125264E-04
 1 39 1.13527571E-03 0.00000000E+00 0.00000000E+00 0.00000000E+00-2.86333419E-11
 1 40 0.00000000E+00-1.14254577E-02 0.00000000E+00-6.02096356E-03-1.27792506E-11
 1 41-6.02096356E-03-1.89077197E-11 0.00000000E+00 0.00000000E+00 0.00000000E+00
 1 42 0.00000000E+00 3.60640476E-04 0.00000000E+00-7.75230617E-05 0.00000000E+00
 1 43-7.75230617E-05 0.00000000E+00 0.00000000E+00 0.00000000E+00
 2  1 0.00000000E+00 0.00000000E+00 0.00000000E+00-7.05291506E-01 0.00000000E+00
 2  2-1.64628382E-10 2.84629235E-10-1.16246805E-11 0.00000000E+00 0.00000000E+00
 2  3-2.89955094E-03 4.01158636E-11-6.17180024E-11 3.89421096E-02-1.73891819E-10
 2  4 2.68815259E-10 1.50376217E-02-2.38809101E-11 3.41685345E-11 8.44174189E-01
 2  5 0.00000000E+00 0.00000000E+00 0.00000000E+00 0.00000000E+00 0.00000000E+00
 2  6 0.00000000E+00 0.00000000E+00 0.00000000E+00-3.70015564E-11 0.00000000E+00
 2  7 0.00000000E+00 0.00000000E+00-2.36095544E-11-2.37331799E-11-9.12985175E-11
 2  8 0.00000000E+00 0.00000000E+00-1.27422571E-11-7.34413551E-11-7.34495516E-11
 2  9-8.81506187E-11 0.00000000E+00 0.00000000E+00 0.00000000E+00 4.11806893E-11
 2 10-6.33784804E-11 4.47872436E-02-2.83828894E-11 1.93104761E-02 1.83531487E-11
 2 11 1.93104761E-02 1.85214127E-11-2.87459326E-11 0.00000000E+00 7.73451615E-11
 2 12-1.19139102E-10 7.86166853E-02-5.32362381E-11 2.48930367E-02 3.46292941E-11
 2 13 2.48930367E-02 3.63846860E-11-5.57545997E-11 0.00000000E+00 1.23849731E-11
 2 14-1.79271628E-11-8.30639703E-03 0.00000000E+00-4.43925988E-02 0.00000000E+00
 2 15-4.43925988E-02 0.00000000E+00-1.20459295E-11 0.00000000E+00 0.00000000E+00
 2 16 0.00000000E+00-2.25986228E-11 0.00000000E+00 0.00000000E+00 0.00000000E+00
 2 17 0.00000000E+00 0.00000000E+00 0.00000000E+00 0.00000000E+00 0.00000000E+00
 2 18 0.00000000E+00 0.00000000E+00 0.00000000E+00 0.00000000E+00 0.00000000E+00
 2 19 0.00000000E+00 6.16487347E-11 0.00000000E+00 0.00000000E+00 0.00000000E+00
 2 20 0.00000000E+00 0.00000000E+00 0.00000000E+00 0.00000000E+00 0.00000000E+00
 2 21 0.00000000E+00 0.00000000E+00 0.00000000E+00 0.00000000E+00-6.09627073E-01
 2 22 7.88652728E-02-4.23397711E-01-2.54237401E-02 1.63080568E-02 0.00000000E+00
 2 23 0.00000000E+00 1.05889217E-01 0.00000000E+00 3.22277388E-11 8.50191236E-02
 2 24 0.00000000E+00-1.44628190E-11-8.70474089E-03 0.00000000E+00 0.00000000E+00
 2 25 4.05896719E-03-2.22157382E-02-2.22157382E-02-3.55724653E-02 0.00000000E+00
 2 26 0.00000000E+00 0.00000000E+00-4.87421094E-03-4.87421094E-03-1.24078905E-02
 2 27 0.00000000E+00 0.00000000E+00 0.00000000E+00-6.91481603E-04-6.91481603E-04
 2 28-1.06427944E-03 0.00000000E+00 0.00000000E+00 0.00000000E+00 0.00000000E+00
 2 29 0.00000000E+00-1.42297529E-02 0.00000000E+00-7.20540752E-03 0.00000000E+00
 2 30-7.20540752E-03 0.00000000E+00 0.00000000E+00 0.00000000E+00 0.00000000E+00
 2 31 0.00000000E+00 4.21101980E-03 0.00000000E+00 1.28989327E-03 0.00000000E+00
 2 32 1.28989327E-03 0.00000000E+00 0.00000000E+00 0.00000000E+00 6.09627073E-01
 2 33-7.88652728E-02 4.23397711E-01 2.54237402E-02-1.63080568E-02 0.00000000E+00
 2 34 0.00000000E+00 1.05889217E-01 0.00000000E+00-1.21170075E-11 8.50191238E-02
 2 35 0.00000000E+00 0.00000000E+00-8.70474090E-03 0.00000000E+00 0.00000000E+00
 2 36 4.05896719E-03 2.22157381E-02 2.22157381E-02 3.55724653E-02 0.00000000E+00
 2 37 0.00000000E+00 0.00000000E+00 4.87421093E-03 4.87421093E-03 1.24078905E-02
 2 38 0.00000000E+00 0.00000000E+00 0.00000000E+00 6.91481603E-04 6.91481603E-04
 2 39 1.06427944E-03 0.00000000E+00 0.00000000E+00 0.00000000E+00 0.00000000E+00
 2 40 0.00000000E+00-1.42297530E-02 0.00000000E+00-7.20540753E-03 0.00000000E+00
 2 41-7.20540753E-03 0.00000000E+00 0.00000000E+00 0.00000000E+00 0.00000000E+00
 2 42 0.00000000E+00 4.21101981E-03 0.00000000E+00 1.28989327E-03 0.00000000E+00
 2 43 1.28989327E-03 0.00000000E+00 0.00000000E+00 0.00000000E+00
 3  1 4.81626323E-01 6.45313241E-10 1.27694243E-09 2.21488264E-11-2.76609736E+00
 3  2 4.95160661E+00 5.76737693E+01 1.32887144E+00-2.91076057E-11-5.94017410E-11
 3  3 0.00000000E+00-2.59237138E-10-3.19122715E-10-1.52117749E-10 3.65057729E-10
 3  4-1.81431229E-10-9.51379629E-11-1.15022598E-10-4.51804570E-10-6.49864835E-09
 3  5-1.02623729E+00-1.02623729E+00-1.04394816E+00 0.00000000E+00 0.00000000E+00
 3  6 0.00000000E+00-2.93520423E+00-2.93520423E+00-1.87063759E+00 0.00000000E+00
 3  7 0.00000000E+00-1.58477538E-11-5.22768352E+00-5.22768352E+00-4.03361404E+00
 3  8 0.00000000E+00 1.35966530E-10 0.00000000E+00-1.24390464E+01-1.24390464E+01
 3  9-6.26132923E+00 0.00000000E+00 1.26475741E-10 4.14311183E-11-1.72318358E-10
 3 10-1.39696311E-10-2.26879138E-10-6.14827974E-11-5.26603056E-11-7.87864862E-11
 3 11-5.26703429E-11-7.59021762E-11-6.13654022E-11 0.00000000E+00-2.83828692E-10
 3 12-1.65344168E-10-2.60738242E-10-7.59609795E-11-4.18433220E-11-1.23486429E-10
 3 13-4.19044674E-11-1.27169780E-10-8.59998128E-11 0.00000000E+00-8.91784744E-11
 3 14-1.22608224E-10 6.08335794E-11-4.76978741E-11 4.02534447E-10-4.93168598E-11
 3 15 4.02540079E-10-2.23994826E-11-1.92691780E-11 0.00000000E+00 3.67424846E-01
 3 16 3.67424846E-01 9.35737075E-01 0.00000000E+00-1.85505862E-11 0.00000000E+00
 3 17 0.00000000E+00 0.00000000E+00-2.24291320E-11 2.15142843E-01 3.92996036E-02
 3 18 3.92996036E-02 0.00000000E+00 0.00000000E+00 0.00000000E+00 5.55827860E-01
 3 19 5.55827860E-01-2.39446573E+00 0.00000000E+00-5.38645118E-11 0.00000000E+00
 3 20-3.15240435E-11-1.90181340E-11-3.18873254E-11 3.25454413E-01-1.15879070E-02
 3 21-1.15879070E-02-1.43913275E-11-1.83531764E-11 0.00000000E+00 1.46633243E-01
 3 22-5.17890282E+00-9.87273011E+00-1.74446646E-01-4.71202152E-01-9.56881637E-11
 3 23 3.98581314E-11 2.31437167E+00-9.68179031E-11 0.00000000E+00 2.60123811E+00
 3 24 3.04272721E-11 2.07672514E-11-1.12447712E-01 0.00000000E+00 0.00000000E+00
 3 25 1.04896837E-02 3.92567421E-01 3.92567421E-01-5.40565308E-01 0.00000000E+00
 3 26 1.83359372E-11-1.96187295E-11-6.14709701E-02-6.14709701E-02-2.07105791E-01
 3 27 0.00000000E+00 0.00000000E+00 0.00000000E+00-2.20804770E-03-2.20804770E-03
 3 28-2.85329281E-04 0.00000000E+00 0.00000000E+00 0.00000000E+00 2.08714115E-11
 3 29 0.00000000E+00-3.79653934E-01 0.00000000E+00-1.74095457E-01 0.00000000E+00
 3 30-1.74095457E-01 0.00000000E+00 0.00000000E+00 0.00000000E+00 0.00000000E+00
 3 31 0.00000000E+00 1.70375702E-02 0.00000000E+00 3.13407468E-03 0.00000000E+00
 3 32 3.13407468E-03 0.00000000E+00 0.00000000E+00 0.00000000E+00 1.46633243E-01
 3 33-5.17890282E+00-9.87273013E+00-1.74446647E-01-4.71202152E-01 4.71952577E-11
 3 34-3.22284792E-11-2.31437167E+00 3.70313872E-11-1.18260705E-10-2.60123811E+00
 3 35 0.00000000E+00 3.78300683E-11 1.12447713E-01 0.00000000E+00 0.00000000E+00
 3 36-1.04896837E-02 3.92567421E-01 3.92567421E-01-5.40565309E-01 0.00000000E+00
 3 37 1.93448215E-11 0.00000000E+00-6.14709702E-02-6.14709702E-02-2.07105791E-01
 3 38 0.00000000E+00 0.00000000E+00 0.00000000E+00-2.20804771E-03-2.20804771E-03
 3 39-2.85329280E-04 0.00000000E+00 0.00000000E+00 0.00000000E+00 0.00000000E+00
 3 40 4.91091930E-11 3.79653934E-01 2.14436451E-11 1.74095457E-01 0.00000000E+00
 3 41 1.74095457E-01 0.00000000E+00 1.82243455E-11 0.00000000E+00 0.00000000E+00
 3 42 0.00000000E+00-1.70375702E-02 0.00000000E+00-3.13407468E-03 0.00000000E+00
 3 43-3.13407468E-03 0.00000000E+00 0.00000000E+00 0.00000000E+00
 4  1 5.20134897E-09 1.69293190E-11 1.01676137E-11-4.98005942E+01 9.89050045E-09
 4  2-5.28915186E-08 1.13895448E-09-3.10842298E-10 0.00000000E+00 0.00000000E+00
 4  3 2.29553857E+00-2.07952534E-10-1.29856957E-10 3.20709604E+00 9.37100721E-10
 4  4 5.82090925E-10 3.26343058E+01 9.74928923E-11 1.37840910E-10 2.62250199E+02
 4  5 3.44409413E-09 3.44640025E-09 3.56237395E-09 0.00000000E+00 0.00000000E+00
 4  6 0.00000000E+00 8.75913391E-09 8.75394404E-09 6.48645473E-09 0.00000000E+00
 4  7 0.00000000E+00 0.00000000E+00 4.15758925E-09 4.14471864E-09-1.30004793E-08
 4  8 0.00000000E+00-1.15237528E-10-9.82953889E-11-8.46346162E-10-8.46855613E-10
 4  9-2.59109691E-09 0.00000000E+00 0.00000000E+00 0.00000000E+00-2.18967359E-10
 4 10-1.26198797E-10 3.69322863E+00-6.01899229E-11-3.90360753E+00-1.06297059E-10
 4 11-3.90360753E+00-1.05508821E-10-6.01820283E-11 0.00000000E+00-4.02343263E-10
 4 12-2.50564106E-10-3.17776277E+01-1.12023973E-10-8.88194702E+00-1.83578401E-10
 4 13-8.88194702E+00-1.90980605E-10-9.61521769E-11 0.00000000E+00-4.98218543E-11
 4 14-5.42951034E-11-3.34201318E+01-1.81742049E-11-2.90243914E+01-2.30014342E-11
 4 15-2.90243914E+01-3.04488911E-11-1.70696402E-11 0.00000000E+00-1.10453259E-09
 4 16-1.09812745E-09-3.05496772E-09 0.00000000E+00 0.00000000E+00 0.00000000E+00
 4 17 0.00000000E+00 0.00000000E+00 0.00000000E+00-6.44624523E-10-6.05259992E-11
 4 18-5.79431492E-11 0.00000000E+00 0.00000000E+00 0.00000000E+00-2.02350849E-09
 4 19-2.01802126E-09 7.65096657E-09 0.00000000E+00 1.98757706E-11 0.00000000E+00
 4 20 1.49952334E-11-2.90463362E-11-1.91777285E-11-1.18313208E-09 1.20963107E-09
 4 21 1.20722029E-09 0.00000000E+00 0.00000000E+00 0.00000000E+00-6.83395667E+01
 4 22 5.34194653E+00-8.68734032E+01 5.03616244E+01 2.41844316E+01 2.98419543E-11
 4 23 0.00000000E+00 2.08952789E+01 2.84445723E-10 1.29498525E-10 1.35633683E+01
 4 24-1.64306806E-10-8.14475747E-11 8.93744431E+00 3.19866608E-11 2.00478658E-11
 4 25-2.85797189E+00-1.35727588E+01-1.35727588E+01-1.41299220E+01 0.00000000E+00
 4 26-3.22725313E-11-1.60406977E-11-9.73201429E+00-9.73201429E+00-1.28827198E+01
 4 27 0.00000000E+00 0.00000000E+00 0.00000000E+00-4.05594917E+00-4.05594917E+00
 4 28-3.83816392E+00 0.00000000E+00 0.00000000E+00 0.00000000E+00-8.99316133E-11
 4 29-3.76083356E-11-6.35781866E+00-2.07029482E-11-3.24430086E+00-4.19216125E-11
 4 30-3.24430086E+00-3.87729058E-11-1.95943290E-11 0.00000000E+00 4.54957950E-11
 4 31 2.57118865E-11-4.55927700E+00 1.21137786E-11-2.22596780E+00 2.77807493E-11
 4 32-2.22596780E+00 2.68316242E-11 1.15073961E-11 0.00000000E+00 6.83395667E+01
 4 33-5.34194653E+00 8.68734032E+01-5.03616243E+01-2.41844316E+01-1.06220809E-11
 4 34-3.18943163E-11 2.08952789E+01-2.28461406E-10-2.74406990E-10 1.35633683E+01
 4 35 1.27234271E-10 1.50270963E-10 8.93744430E+00-1.36060615E-11-2.85533589E-11
 4 36-2.85797188E+00 1.35727588E+01 1.35727588E+01 1.41299220E+01 0.00000000E+00
 4 37-1.87673554E-11-2.89996403E-11 9.73201428E+00 9.73201428E+00 1.28827198E+01
 4 38 0.00000000E+00 0.00000000E+00 0.00000000E+00 4.05594917E+00 4.05594917E+00
 4 39 3.83816392E+00 0.00000000E+00 0.00000000E+00 0.00000000E+00 7.38795756E-11
 4 40 9.15966734E-11-6.35781867E+00 4.01927750E-11-3.24430086E+00 3.27160285E-11
 4 41-3.24430086E+00 3.21748459E-11 3.79538876E-11 0.00000000E+00-3.42310375E-11
 4 42-3.88406457E-11-4.55927700E+00-1.05220748E-11-2.22596780E+00 0.00000000E+00
 4 43-2.22596780E+00-1.05463999E-11-1.03917200E-11 0.00000000E+00
 5  1-2.91803512E-10 3.82151592E+00-6.27583081E-01 3.15740534E-11 2.20974624E-10
 5  2-1.29191296E-09 3.20383888E-10 0.00000000E+00 4.91498537E-01-8.07156566E-02
 5  3 0.00000000E+00-6.08619121E+01 9.99496199E+00-1.18280834E-09 2.82819183E+02
 5  4-4.64455829E+01 1.57949676E-09 2.41052013E+01-3.95864281E+00 2.71598595E-09
 5  5 8.58060910E-11 8.44643833E-11 8.16465321E-11 0.00000000E+00-1.69228789E-11
 5  6 0.00000000E+00 2.13449227E-10 2.17858001E-10 4.26093754E-10 0.00000000E+00
 5  7 1.74816679E-10 0.00000000E+00-3.60555094E-11-2.22605673E-11-8.47732351E-10
 5  8 0.00000000E+00 2.83246208E-10-2.91859781E-11-1.09967992E-10-1.09247576E-10
 5  9-3.84613910E-10 0.00000000E+00 0.00000000E+00 0.00000000E+00-6.50613500E+01
 5 10 1.06846088E+01-1.50413566E-09 4.77830231E+00-5.50822517E-10-2.90963203E+01
 5 11-5.50726386E-10-2.88578672E+01 4.73914268E+00 0.00000000E+00-1.16888331E+02
 5 12 1.91958218E+01-3.11087427E-09 8.58463250E+00-6.92136221E-10-5.22740506E+01
 5 13-6.92325755E-10-5.21803602E+01 8.56924632E+00 0.00000000E+00-1.17751134E+01
 5 14 1.93375146E+00-7.70620107E-10 8.64799942E-01-4.01146430E-10-5.26599082E+00
 5 15-4.01091114E-10-4.89471600E+00 8.03827857E-01 0.00000000E+00-4.85020252E-11
 5 16-5.48013897E-11 7.97560340E-11 0.00000000E+00-7.55430238E-11 0.00000000E+00
 5 17 0.00000000E+00-3.85843455E-11 0.00000000E+00-3.04301491E-11-7.68424491E-11
 5 18-7.50652708E-11 0.00000000E+00-3.31879593E-11 0.00000000E+00-1.16786894E-10
 5 19-1.22293159E-10-4.59616622E-10 0.00000000E+00-5.36667340E-11 0.00000000E+00
 5 20 0.00000000E+00-2.23958499E-11 1.28320506E-11-7.01263322E-11-1.32584368E-11
 5 21 0.00000000E+00 0.00000000E+00-2.38790263E-11 0.00000000E+00 1.33949051E-11
 5 22 0.00000000E+00 7.00485570E-11 3.29799570E-09-8.79912051E-11-2.92547284E-01
 5 23 4.80431666E-02 3.89077701E-11-2.12191697E+00 3.48468832E-01-1.12311309E-09
 5 24 8.56571857E-01-1.40669310E-01 3.04857429E-11-1.24382338E-01 2.04265146E-02
 5 25 0.00000000E+00-5.27747112E-11-5.89256257E-11-7.50800620E-11 0.00000000E+00
 5 26 1.46350994E-01-2.40342863E-02-1.01611230E-11-1.11669318E-11 4.98004675E-11
 5 27 0.00000000E+00 1.09863993E-01-1.80422599E-02 0.00000000E+00 0.00000000E+00
 5 28 0.00000000E+00 0.00000000E+00-1.49660123E-02 2.45777233E-03 9.09439593E-01
 5 29-1.49351439E-01 1.48932173E-10-6.67919941E-02 2.47687969E-11 4.06713750E-01
 5 30 2.71178084E-11 3.47444198E-01-5.70585351E-02 0.00000000E+00-1.66468947E-01
 5 31 2.73381290E-02 1.15977173E-11 1.22259829E-02 0.00000000E+00-7.44471762E-02
 5 32 0.00000000E+00-7.57174852E-02 1.24345976E-02 0.00000000E+00-1.67032033E-11
 5 33 3.14181867E-11 1.27472602E-09-1.96313128E-09-1.52229674E-10-2.92547284E-01
 5 34 4.80431666E-02 2.24954175E-10-2.12191697E+00 3.48468832E-01-1.88436416E-09
 5 35 8.56571857E-01-1.40669309E-01 1.25687203E-10-1.24382337E-01 2.04265146E-02
 5 36 0.00000000E+00 1.99935506E-10 1.93656765E-10-1.80056086E-11 0.00000000E+00
 5 37-1.46350994E-01 2.40342863E-02 1.44470727E-11 1.34708503E-11-1.16330262E-10
 5 38 0.00000000E+00-1.09863993E-01 1.80422599E-02 0.00000000E+00 0.00000000E+00
 5 39 0.00000000E+00 0.00000000E+00 1.49660122E-02-2.45777233E-03 9.09439593E-01
 5 40-1.49351439E-01 3.85467712E-10-6.67919941E-02 1.59567576E-10 4.06713750E-01
 5 41 1.57267726E-10 3.47444198E-01-5.70585351E-02 0.00000000E+00-1.66468947E-01
 5 42 2.73381289E-02 0.00000000E+00 1.22259829E-02 0.00000000E+00-7.44471762E-02
 5 43 0.00000000E+00-7.57174852E-02 1.24345976E-02 0.00000000E+00
 6  1-1.18759366E-10 6.27583081E-01 3.82151592E+00-4.38355575E-10-2.80344541E-10
 6  2-2.06823207E-10 2.02146655E-10-1.84784666E-11 8.07156566E-02 4.91498537E-01
 6  3 1.58201941E-11-9.99496199E+00-6.08619121E+01 7.41214068E-10 4.64455828E+01
 6  4 2.82819183E+02-1.10961938E-10 3.95864281E+00 2.41052013E+01-3.23920395E-09
 6  5-9.25466116E-11-9.99790481E-11-1.34295504E-10 0.00000000E+00-2.49875597E-11
 6  6 1.61367906E-11-3.09438046E-10-2.46098081E-10-4.03814190E-10 0.00000000E+00
 6  7 1.60970800E-10-1.17561618E-10-4.85328793E-10-2.98250981E-10-1.06317415E-09
 6  8 0.00000000E+00 2.15995953E-10 2.23547170E-10-7.14393084E-11-5.61285364E-11
 6  9 2.95942827E-11 0.00000000E+00 2.60984510E-11-6.03478964E-11-1.06846088E+01
 6 10-6.50613500E+01 6.65200317E-10-2.90963203E+01 2.47899891E-10-4.77830231E+00
 6 11 2.47928248E-10-4.73914268E+00-2.88578672E+01 0.00000000E+00-1.91958218E+01
 6 12-1.16888331E+02 1.00531594E-09-5.22740506E+01 3.87143260E-10-8.58463250E+00
 6 13 3.87646455E-10-8.56924632E+00-5.21803602E+01 0.00000000E+00-1.93375146E+00
 6 14-1.17751134E+01 9.55296826E-10-5.26599082E+00 6.74710138E-10-8.64799942E-01
 6 15 6.74685510E-10-8.03827857E-01-4.89471600E+00 0.00000000E+00 1.29376642E-10
 6 16 0.00000000E+00-5.16613568E-10 0.00000000E+00-7.51977927E-11 0.00000000E+00
 6 17-1.34551344E-11-1.34730749E-10 2.72226490E-10 2.97367790E-11-3.85040122E-11
 6 18-3.73858192E-11 0.00000000E+00-4.14069657E-11 0.00000000E+00 1.44584332E-10
 6 19 6.75714135E-11-5.62646646E-10 0.00000000E+00-4.79674854E-11 0.00000000E+00
 6 20-4.80929841E-11-9.87337557E-11 1.72960864E-10 6.39162099E-11 1.05035161E-11
 6 21 0.00000000E+00-1.96037190E-11-2.04100802E-11 0.00000000E+00 1.48651534E-10
 6 22 9.23723078E-11-3.53418662E-10 3.20315964E-11 5.57042635E-10-4.80431666E-02
 6 23-2.92547284E-01 1.82850243E-10-3.48468832E-01-2.12191697E+00 4.00834237E-11
 6 24 1.40669310E-01 8.56571857E-01 2.40572202E-11-2.04265146E-02-1.24382337E-01
 6 25 0.00000000E+00 6.21456274E-10 6.07763991E-10 2.33371156E-10 0.00000000E+00
 6 26 2.40342864E-02 1.46350994E-01 2.18794344E-10 2.01813255E-10 1.06895652E-10
 6 27 0.00000000E+00 1.80422599E-02 1.09863993E-01 0.00000000E+00 0.00000000E+00
 6 28 0.00000000E+00 0.00000000E+00-2.45777233E-03-1.49660123E-02 1.49351439E-01
 6 29 9.09439593E-01 2.16292094E-10 4.06713750E-01 0.00000000E+00 6.67919940E-02
 6 30 2.20824481E-11 5.70585350E-02 3.47444198E-01 0.00000000E+00-2.73381290E-02
 6 31-1.66468947E-01 0.00000000E+00-7.44471762E-02 0.00000000E+00-1.22259829E-02
 6 32 0.00000000E+00-1.24345976E-02-7.57174851E-02 0.00000000E+00 5.57619868E-11
 6 33-5.60923336E-11 2.16925404E-10 2.04475489E-09 4.48263180E-11-4.80431665E-02
 6 34-2.92547284E-01 3.60533744E-10-3.48468832E-01-2.12191697E+00 9.25118576E-10
 6 35 1.40669310E-01 8.56571857E-01-5.94685807E-11-2.04265146E-02-1.24382337E-01
 6 36 2.05986190E-11-8.69349317E-11-1.00099872E-10 1.77938846E-10 0.00000000E+00
 6 37-2.40342863E-02-1.46350994E-01-1.61905957E-11-3.31696599E-11 8.99669870E-11
 6 38 0.00000000E+00-1.80422599E-02-1.09863993E-01 0.00000000E+00 0.00000000E+00
 6 39 0.00000000E+00 0.00000000E+00 2.45777233E-03 1.49660122E-02 1.49351439E-01
 6 40 9.09439592E-01 0.00000000E+00 4.06713750E-01-1.46879221E-11 6.67919941E-02
 6 41-2.98424817E-11 5.70585352E-02 3.47444197E-01 0.00000000E+00-2.73381290E-02
 6 42-1.66468947E-01 3.17470327E-11-7.44471762E-02 1.85887679E-11-1.22259829E-02
 6 43 1.80114283E-11-1.24345976E-02-7.57174851E-02 0.00000000E+00
 7  1 1.24578726E-07-9.57717668E-11 1.83864781E-11-4.34399066E+01 3.22629258E-07
 7  2-5.65350288E-07-8.45740957E-07 1.72723578E-08 0.00000000E+00 0.00000000E+00
 7  3 2.34027469E+00 8.57695201E-10-5.42535606E-10-4.43766795E+01-3.78880525E-09
 7  4 2.66571836E-09 6.20344278E+01-1.10934097E-10 5.53959526E-10 1.28915229E+02
 7  5 1.39037761E-07 1.39037402E-07 1.26906237E-07 0.00000000E+00 0.00000000E+00
 7  6-2.45518152E-11 2.63477275E-07 2.63477148E-07 1.04060953E-07 0.00000000E+00
 7  7 4.79154440E-11-8.41222481E-11 2.58403740E-07 2.58410201E-07 3.62937616E-07
 7  8 0.00000000E+00 5.83908412E-11-2.51000903E-10 2.80691500E-07 2.80693235E-07
 7  9 5.63327994E-07 0.00000000E+00 1.02257171E-11-7.73718675E-11 9.02419483E-10
 7 10-5.78614778E-10-7.40180858E+01-2.62527860E-10-1.94231254E+01 4.00834049E-10
 7 11-1.94231254E+01 4.38378350E-10-2.22307532E-10 0.00000000E+00 1.59435567E-09
 7 12-1.10211933E-09-1.08557116E+02-4.88809698E-10-2.90358136E+01 7.19038217E-10
 7 13-2.90358136E+01 7.57116071E-10-4.29070708E-10 0.00000000E+00 9.45640505E-11
 7 14-2.23959348E-10-3.32703830E+01-1.00262273E-10-1.89283089E+01 4.11282867E-11
 7 15-1.89283089E+01 1.03458183E-10-2.32310589E-11 0.00000000E+00 7.29643693E-08
 7 16 7.29604307E-08-2.42228274E-07 0.00000000E+00-1.77738034E-11 0.00000000E+00
 7 17 2.95661446E-11-1.93190984E-11-2.52258324E-10 4.27226426E-08 7.73672177E-08
 7 18 7.73694627E-08 1.60019959E-11-1.09163672E-11 0.00000000E+00 1.24402526E-07
 7 19 1.24398820E-07 4.30404423E-07 0.00000000E+00-1.66150039E-11 0.00000000E+00
 7 20 4.62620822E-11-2.41233472E-11-2.66278137E-11 7.28415661E-08 7.53572226E-08
 7 21 7.53554977E-08 1.77858829E-11 0.00000000E+00 0.00000000E+00 9.00161847E-01
 7 22 4.46236848E+00-4.36592589E+00 1.01459297E+02 5.57762259E+00-6.53743487E-11
 7 23 4.87810439E-11-3.32952902E+00-4.50886245E-10-6.50026245E-10-8.97064792E+01
 7 24 0.00000000E+00 1.56285678E-10 6.56104118E+00 2.43610532E-11 3.06714096E-11
 7 25-3.98271126E-01-6.01787784E+00-6.01787784E+00 6.40410616E+00 0.00000000E+00
 7 26 5.36971155E-11-1.91401842E-11-3.99134249E-01-3.99134249E-01 7.63335060E+00
 7 27 0.00000000E+00 3.36305370E-11-8.76205915E-11 6.33342134E-02 6.33342134E-02
 7 28-2.26481462E-01 0.00000000E+00 0.00000000E+00 0.00000000E+00 2.05025524E-10
 7 29 4.23183501E-10 1.83681424E+01 1.82620916E-10 8.36132651E+00 8.26661455E-11
 7 30 8.36132651E+00 6.00129583E-11 1.94674614E-10 0.00000000E+00 4.52888850E-11
 7 31 6.41109949E-11-5.53044821E-01 3.36826339E-11-8.35451109E-02 2.33837649E-11
 7 32-8.35451109E-02 2.50700195E-11 3.42791156E-11 0.00000000E+00-9.00161840E-01
 7 33-4.46236847E+00 4.36592411E+00-1.01459297E+02-5.57762215E+00-4.42261558E-11
 7 34-2.03435419E-10-3.32952935E+00-7.12811854E-10-4.62388956E-10-8.97064781E+01
 7 35 4.88454977E-11 2.81165213E-11 6.56104112E+00 3.05959313E-11-1.55715869E-11
 7 36-3.98271135E-01 6.01787781E+00 6.01787781E+00-6.40410606E+00 0.00000000E+00
 7 37-4.73866194E-11-1.44951173E-10 3.99134323E-01 3.99134323E-01-7.63335053E+00
 7 38 0.00000000E+00 0.00000000E+00-1.24350118E-10-6.33342153E-02-6.33342153E-02
 7 39 2.26481463E-01 0.00000000E+00 0.00000000E+00 0.00000000E+00 3.42504885E-10
 7 40 5.72392428E-11 1.83681420E+01 2.54001476E-11 8.36132636E+00 1.53274710E-10
 7 41 8.36132636E+00 1.37981466E-10-2.70362172E-11 0.00000000E+00 6.06526448E-11
 7 42-2.79732027E-11-5.53044837E-01 0.00000000E+00-8.35451208E-02 2.66284422E-11
 7 43-8.35451208E-02 3.06917691E-11-1.46492641E-11 0.00000000E+00
 8  1 2.09798151E+02 1.34199609E-11 0.00000000E+00 8.75455942E-10 2.88103026E+01
 8  2-5.71871111E+01-9.49261695E+01-1.23944891E+00 0.00000000E+00 0.00000000E+00
 8  3-1.90922486E-11-1.60341418E-10-1.14041438E-10-3.59559106E-09 6.99021417E-10
 8  4 5.55789103E-10 6.52412114E-09 3.94683507E-11 1.79625418E-10 9.30961798E-09
 8  5 3.79299889E+00 3.79299889E+00 4.53435802E+00 0.00000000E+00 0.00000000E+00
 8  6 0.00000000E+00 2.59327845E-01 2.59327845E-01-4.09921973E+00 0.00000000E+00
 8  7 2.03395492E-11 2.89695431E-11-1.33847047E+00-1.33847047E+00 7.21635491E+00
 8  8 0.00000000E+00-4.05790408E-10-9.32140228E-10 1.25532472E+01 1.25532472E+01
 8  9 3.37047631E+01 0.00000000E+00-3.09162965E-11-7.13134448E-11-1.69111487E-10
 8 10-1.17480332E-10-3.65204557E-09-6.15354326E-11-1.61677222E-09-7.48432046E-11
 8 11-1.61664477E-09-7.69924157E-11-6.19492356E-11 0.00000000E+00-3.05199504E-10
 8 12-2.35846326E-10-8.56529580E-09-1.05205658E-10-2.57776754E-09-1.36137962E-10
 8 13-2.57799711E-09-1.56346031E-10-7.73567262E-11 0.00000000E+00-2.32524635E-11
 8 14-6.77991979E-11-2.54478974E-09-2.96321325E-11-1.39853769E-09 0.00000000E+00
 8 15-1.39861588E-09-2.98240166E-11 0.00000000E+00 0.00000000E+00 2.25737856E+00
 8 16 2.25737856E+00 2.09204008E+00 0.00000000E+00 0.00000000E+00 0.00000000E+00
 8 17 1.22731499E-11 3.90705447E-11 7.34946486E-11 1.32178766E+00 2.86427118E+00
 8 18 2.86427118E+00 0.00000000E+00 0.00000000E+00 0.00000000E+00 2.95088306E+00
 8 19 2.95088306E+00 1.70823841E+01 0.00000000E+00 6.81003806E-11 0.00000000E+00
 8 20 1.64132554E-10-1.06046058E-10-2.37188335E-10 1.72785032E+00 3.62943084E+00
 8 21 3.62943084E+00 7.31916814E-11 2.69726761E-11 0.00000000E+00-4.26626352E+00