 $CONTRL  
     SCFTYP=ROHF 
     MULT=1 
     ICHARG=0 
     RUNTYP=energy 
     MAXIT=200 
     PP=READ
     ISPHER=1
     UNITS=ANGS 
 $END

 $SYSTEM 
    MWORDS=1000  
    MEMDDI=1000 
 $END

 $GUESS 
     GUESS=HUCKEL
 $END

 $SCF DAMP=.T. SOSCF=.F. SHIFT=.T. RSTRCT=.T. DIIS=.T.  $END


! $MCSCF
!      CISTEP=GUGA
! $END

! $CIDRT 
!      NPRT=2
!      NFZC=0
!      NDOC=4
! !     NAOS=1
! !     NBOS=1
!      NVAL=30 
!      IEXCIT=1
!      GROUP=C1
! $END
!
! $GUGDIA NSTATE=2 $END
!
! $GUGDM NFLGDM(1)=1,1 IROOT=2 $END
!
! $GUGDIA PRTTOL=0.0001 $END

! $CIS    
!      HAMTYP=SAPS MULT=1 NACORE=0 NSTATE=1 IROOT=1
! $END

 $DATA
CH3 calculation
C1
C 6 0.0000  0.0000  0.6013
S  9
  1      13.073594  0.00515830
  2       6.541187  0.06034240
  3       4.573411  -0.19784710
  4       1.637494  -0.08103400
  5       0.819297  0.23217260
  6       0.409924  0.29146430
  7       0.231300  0.43364050
  8       0.102619  0.21319400
  9       0.051344  0.00498480
P  9
  1       9.934169  0.02090760
  2       3.886955  0.05726980
  3       1.871016  0.11226820
  4       0.935757  0.21300820
  5       0.468003  0.28358150
  6       0.239473  0.30112070
  7       0.117063  0.20169340
  8       0.058547  0.04535750
  9       0.029281  0.00297750
S  1
  1       0.846879  1.00000000
S  1
  1       0.269659  1.00000000
S  1
  1       0.109576  1.00000000
S  1
  1       0.043830  1.00000000
P  1
  1       0.804681  1.00000000
P  1
  1       0.313254  1.00000000
P  1
  1       0.105389  1.00000000
P  1
  1       0.042156  1.00000000
D  1
  1       2.013760  1.00000000
D  1
  1       0.684884  1.00000000
D  1
  1       0.240171  1.00000000
D  1
  1       0.096069  1.00000000
F  1
  1       0.457302  1.00000000
F  1
  1       1.324930  1.00000000
F  1
  1       0.529972  1.00000000
G  1
  1       1.034180  1.00000000
G  1
  1       0.413672  1.00000000

C 6 0.0000  0.0000  -0.6013
S  9
  1      13.073594  0.00515830
  2       6.541187  0.06034240
  3       4.573411  -0.19784710
  4       1.637494  -0.08103400
  5       0.819297  0.23217260
  6       0.409924  0.29146430
  7       0.231300  0.43364050
  8       0.102619  0.21319400
  9       0.051344  0.00498480
P  9
  1       9.934169  0.02090760
  2       3.886955  0.05726980
  3       1.871016  0.11226820
  4       0.935757  0.21300820
  5       0.468003  0.28358150
  6       0.239473  0.30112070
  7       0.117063  0.20169340
  8       0.058547  0.04535750
  9       0.029281  0.00297750
S  1
  1       0.846879  1.00000000
S  1
  1       0.269659  1.00000000
S  1
  1       0.109576  1.00000000
S  1
  1       0.043830  1.00000000
P  1
  1       0.804681  1.00000000
P  1
  1       0.313254  1.00000000
P  1
  1       0.105389  1.00000000
P  1
  1       0.042156  1.00000000
D  1
  1       2.013760  1.00000000
D  1
  1       0.684884  1.00000000
D  1
  1       0.240171  1.00000000
D  1
  1       0.096069  1.00000000
F  1
  1       0.457302  1.00000000
F  1
  1       1.324930  1.00000000
F  1
  1       0.529972  1.00000000
G  1
  1       1.034180  1.00000000
G  1
  1       0.413672  1.00000000

H 1  0.0000 0.0000 1.6644
S  8
  1      23.843185  0.00411490
  2      10.212443  0.01046440
  3       4.374164  0.02801110
  4       1.873529  0.07588620
  5       0.802465  0.18210620
  6       0.343709  0.34852140
  7       0.147217  0.37823130
  8       0.063055  0.11642410
S  1
  1       0.028726  1.00000000
S  1
  1       0.081856  1.00000000
S  1
  1       0.233254  1.00000000
S  1
  1       0.664673  1.00000000
P  1
  1       0.095522  1.00000000
P  1
  1       0.284469  1.00000000
P  1
  1       0.847159  1.00000000
P  1
  1       2.522868  1.00000000
D  1
  1       0.216033  1.00000000
D  1
  1       0.665279  1.00000000
D  1
  1       2.048739  1.00000000
F  1
  1       0.444647  1.00000000
F  1
  1       1.421460  1.00000000

H 1 0.0000 0.0000 -1.6644
S  8
  1      23.843185  0.00411490
  2      10.212443  0.01046440
  3       4.374164  0.02801110
  4       1.873529  0.07588620
  5       0.802465  0.18210620
  6       0.343709  0.34852140
  7       0.147217  0.37823130
  8       0.063055  0.11642410
S  1
  1       0.028726  1.00000000
S  1
  1       0.081856  1.00000000
S  1
  1       0.233254  1.00000000
S  1
  1       0.664673  1.00000000
P  1
  1       0.095522  1.00000000
P  1
  1       0.284469  1.00000000
P  1
  1       0.847159  1.00000000
P  1
  1       2.522868  1.00000000
D  1
  1       0.216033  1.00000000
D  1
  1       0.665279  1.00000000
D  1
  1       2.048739  1.00000000
F  1
  1       0.444647  1.00000000
F  1
  1       1.421460  1.00000000

 $END

 $ECP
C-ccECP GEN 2 1 
3
 4.00000  1 14.43502
57.74008  3 8.39889 
-25.81955 2 7.38188 
1
52.13345  2 7.76079 
C-ccECP
H-ccECP GEN 0 1
3
1.00000000000000    1 21.24359508259891 
21.24359508259891   3 21.24359508259891 
-10.85192405303825  2 21.77696655044365 
1
0.00000000000000    2 1.000000000000000 
H-ccECP

$END
